NAME : portcgen-20-19
COMMENT : portcgen N=20, seed=19
TYPE : TSP
DIMENSION : 20
EDGE_WEIGHT_TYPE : EUC_2D
NODE_COORD_SECTION
1 -52646 -180614
2 -197166 56436
3 55537 368562
4 -315652 143261
5 -228110 -73610
6 22794 -83888
7 391301 -59805
8 483332 85752
9 5851 -92873
10 192784 140079
11 -442834 198318
12 -200214 57771
13 -35909 -533453
14 -161486 161789
15 -284919 -3426
16 122395 24948
17 -143001 -264358
18 -212502 38586
19 238425 348751
20 -542836 -5181
